;  depth   = 3
;  nconst  = 6
;  assertions = 7
;  timeout = 2500
;  time    = {'smt_solvers/QF_S/z3str3fed/': 68.99852275848389, 'smt_solvers/QF_S/z3str3/': 40.49930167198181, 'smt_solvers/QF_S/z3seq/': 734.3631684780121, 'smt_solvers/QF_S/cvc4/': 2500}
;  score   = 6765.636831521988
;  stdout  = {'smt_solvers/QF_S/z3str3fed/': 'unsat', 'smt_solvers/QF_S/z3str3/': 'unsat', 'smt_solvers/QF_S/z3seq/': 'sat', 'smt_solvers/QF_S/cvc4/': 'timeout'}
(set-logic QF_S)(declare-fun var0 () String)(declare-fun var1 () String)(declare-fun var2 () String)(declare-fun var3 () String)(declare-fun var4 () String)(declare-fun var5 () String)(declare-fun var6 () Int)(declare-fun var7 () Int)(declare-fun var8 () Int)(declare-fun var9 () Int)(declare-fun var10 () Int)(declare-fun var11 () Int)(declare-fun var12 () Bool)(declare-fun var13 () Bool)(declare-fun var14 () Bool)(declare-fun var15 () Bool)(declare-fun var16 () Bool)(declare-fun var17 () Bool)(assert (< (str.to.int var0) (str.len var3)))(assert (str.contains (str.replace var0 var3 "xTyA36c]LY") (str.at var0 var7)))(assert (<= (str.indexof "l@+uatTcTj" var1 var7) (str.len var1)))(assert (str.in.re (str.at var4 var6) (re.+ re.allchar)))(assert (< (str.len var0) (str.indexof (str.substr "jq-Zf,@Wvk" var10 var8) (str.replace var5 var3 var0) (str.len var0))))(assert (str.prefixof (str.replace var3 var5 "QiKRz3!w+W") (str.at var1 var9)))(assert (>= (str.indexof (str.replace "RysoD[ZY%S" var5 "n,t;M)1?8Z") (str.substr var1 var7 var10) (str.indexof ".;!v:6d&y=" var0 var11)) (str.len var0)))(check-sat)